NAME: instance_506
TYPE: TSP
DIMENSION: 20
EDGE_WEIGHT_TYPE: EUC_2D
NODE_COORD_SECTION
0 78.00 56.00
1 30.67 13.73
2 25.26 2.84
3 76.92 43.53
4 52.65 8.10
5 32.68 24.06
6 70.09 7.24
7 65.46 13.93
8 66.11 32.96
9 83.38 72.92
10 74.27 13.65
11 5.12 10.77
12 64.31 28.28
13 95.46 86.87
14 29.86 30.44
15 19.72 8.71
16 24.82 1.59
17 12.63 49.26
18 37.32 24.47
19 53.38 11.93
EOF
